c Generated map
c Size: 10 * 10, weights in range: 1 to 10, walls: True, with ratio 0.1
c dim 2 of 6
c
p sp 100 148
c graph contains 100 nodes and 148 arcs
c
a 1 11 1
a 11 1 1
a 1 2 2
a 2 1 2
a 2 12 2
a 12 2 2
a 2 3 1
a 3 2 1
a 3 13 8
a 13 3 8
a 5 15 5
a 15 5 5
a 5 6 9
a 6 5 9
a 6 16 4
a 16 6 4
a 6 7 3
a 7 6 3
a 7 17 4
a 17 7 4
a 7 8 6
a 8 7 6
a 8 18 4
a 18 8 4
a 8 9 2
a 9 8 2
a 9 19 6
a 19 9 6
a 9 10 4
a 10 9 4
a 10 20 2
a 20 10 2
a 11 21 3
a 21 11 3
a 11 12 7
a 12 11 7
a 12 13 9
a 13 12 9
a 13 23 1
a 23 13 1
a 13 14 10
a 14 13 10
a 14 24 3
a 24 14 3
a 14 15 4
a 15 14 4
a 15 25 4
a 25 15 4
a 15 16 6
a 16 15 6
a 16 26 9
a 26 16 9
a 16 17 1
a 17 16 1
a 17 27 1
a 27 17 1
a 17 18 3
a 18 17 3
a 18 28 9
a 28 18 9
a 18 19 2
a 19 18 2
a 19 29 2
a 29 19 2
a 19 20 9
a 20 19 9
a 20 30 5
a 30 20 5
a 21 31 7
a 31 21 7
a 23 33 3
a 33 23 3
a 23 24 6
a 24 23 6
a 24 34 2
a 34 24 2
a 24 25 4
a 25 24 4
a 25 35 3
a 35 25 3
a 25 26 3
a 26 25 3
a 26 36 9
a 36 26 9
a 26 27 7
a 27 26 7
a 27 37 9
a 37 27 9
a 27 28 3
a 28 27 3
a 28 38 6
a 38 28 6
a 28 29 7
a 29 28 7
a 29 39 3
a 39 29 3
a 29 30 6
a 30 29 6
a 31 41 6
a 41 31 6
a 33 43 8
a 43 33 8
a 33 34 9
a 34 33 9
a 34 44 4
a 44 34 4
a 34 35 9
a 35 34 9
a 35 45 7
a 45 35 7
a 35 36 2
a 36 35 2
a 36 46 8
a 46 36 8
a 36 37 2
a 37 36 2
a 37 47 6
a 47 37 6
a 37 38 5
a 38 37 5
a 38 48 5
a 48 38 5
a 38 39 7
a 39 38 7
a 39 49 2
a 49 39 2
a 41 51 8
a 51 41 8
a 41 42 9
a 42 41 9
a 42 52 2
a 52 42 2
a 42 43 4
a 43 42 4
a 43 53 9
a 53 43 9
a 43 44 2
a 44 43 2
a 44 54 10
a 54 44 10
a 44 45 3
a 45 44 3
a 45 55 6
a 55 45 6
a 45 46 4
a 46 45 4
a 46 56 3
a 56 46 3
a 46 47 5
a 47 46 5
a 47 57 6
a 57 47 6
a 47 48 8
a 48 47 8
a 48 58 6
a 58 48 6
a 48 49 3
a 49 48 3
a 49 59 7
a 59 49 7
a 51 61 2
a 61 51 2
a 51 52 6
a 52 51 6
a 52 53 10
a 53 52 10
a 53 63 1
a 63 53 1
a 53 54 8
a 54 53 8
a 54 64 9
a 64 54 9
a 54 55 7
a 55 54 7
a 55 65 10
a 65 55 10
a 55 56 8
a 56 55 8
a 56 66 9
a 66 56 9
a 56 57 7
a 57 56 7
a 57 67 6
a 67 57 6
a 57 58 8
a 58 57 8
a 58 68 10
a 68 58 10
a 58 59 3
a 59 58 3
a 59 69 4
a 69 59 4
a 59 60 4
a 60 59 4
a 60 70 7
a 70 60 7
a 63 73 7
a 73 63 7
a 63 64 3
a 64 63 3
a 64 65 10
a 65 64 10
a 65 75 3
a 75 65 3
a 65 66 8
a 66 65 8
a 66 76 10
a 76 66 10
a 66 67 3
a 67 66 3
a 67 77 7
a 77 67 7
a 67 68 4
a 68 67 4
a 68 78 2
a 78 68 2
a 68 69 5
a 69 68 5
a 69 79 5
a 79 69 5
a 69 70 5
a 70 69 5
a 70 80 2
a 80 70 2
a 72 82 8
a 82 72 8
a 72 73 4
a 73 72 4
a 73 83 10
a 83 73 10
a 75 85 4
a 85 75 4
a 75 76 6
a 76 75 6
a 76 86 5
a 86 76 5
a 76 77 5
a 77 76 5
a 77 87 6
a 87 77 6
a 77 78 5
a 78 77 5
a 78 88 9
a 88 78 9
a 78 79 3
a 79 78 3
a 79 89 1
a 89 79 1
a 79 80 2
a 80 79 2
a 80 90 6
a 90 80 6
a 81 91 3
a 91 81 3
a 81 82 3
a 82 81 3
a 82 92 5
a 92 82 5
a 82 83 6
a 83 82 6
a 83 93 5
a 93 83 5
a 83 84 8
a 84 83 8
a 84 94 4
a 94 84 4
a 84 85 2
a 85 84 2
a 85 86 6
a 86 85 6
a 86 96 10
a 96 86 10
a 86 87 5
a 87 86 5
a 87 97 3
a 97 87 3
a 87 88 4
a 88 87 4
a 88 89 7
a 89 88 7
a 89 99 5
a 99 89 5
a 89 90 9
a 90 89 9
a 90 100 3
a 100 90 3
a 91 92 2
a 92 91 2
a 92 93 10
a 93 92 10
a 93 94 6
a 94 93 6
a 96 97 7
a 97 96 7
a 99 100 4
a 100 99 4
